certificates/rado_a14_c58_N28.cnf
c Rad2 upper bound instance: x1 + 14*x2 - x3 = 58, interval [1,28]
p cnf 28 112
1 5 13 0
-1 -5 -13 0
1 6 27 0
-1 -6 -27 0
2 5 14 0
-2 -5 -14 0
2 6 28 0
-2 -6 -28 0
1 3 4 0
-1 -3 -4 0
3 5 15 0
-3 -5 -15 0
2 4 0
-2 -4 0
4 5 16 0
-4 -5 -16 0
3 4 5 0
-3 -4 -5 0
5 17 0
-5 -17 0
4 6 0
-4 -6 0
5 6 18 0
-5 -6 -18 0
4 5 7 0
-4 -5 -7 0
5 7 19 0
-5 -7 -19 0
4 6 8 0
-4 -6 -8 0
5 8 20 0
-5 -8 -20 0
4 7 9 0
-4 -7 -9 0
5 9 21 0
-5 -9 -21 0
4 8 10 0
-4 -8 -10 0
5 10 22 0
-5 -10 -22 0
4 9 11 0
-4 -9 -11 0
5 11 23 0
-5 -11 -23 0
4 10 12 0
-4 -10 -12 0
5 12 24 0
-5 -12 -24 0
4 11 13 0
-4 -11 -13 0
5 13 25 0
-5 -13 -25 0
4 12 14 0
-4 -12 -14 0
5 14 26 0
-5 -14 -26 0
4 13 15 0
-4 -13 -15 0
5 15 27 0
-5 -15 -27 0
4 14 16 0
-4 -14 -16 0
5 16 28 0
-5 -16 -28 0
1 3 17 0
-1 -3 -17 0
4 15 17 0
-4 -15 -17 0
2 3 18 0
-2 -3 -18 0
4 16 18 0
-4 -16 -18 0
3 19 0
-3 -19 0
4 17 19 0
-4 -17 -19 0
3 4 20 0
-3 -4 -20 0
4 18 20 0
-4 -18 -20 0
3 5 21 0
-3 -5 -21 0
4 19 21 0
-4 -19 -21 0
3 6 22 0
-3 -6 -22 0
4 20 22 0
-4 -20 -22 0
3 7 23 0
-3 -7 -23 0
4 21 23 0
-4 -21 -23 0
3 8 24 0
-3 -8 -24 0
4 22 24 0
-4 -22 -24 0
3 9 25 0
-3 -9 -25 0
4 23 25 0
-4 -23 -25 0
3 10 26 0
-3 -10 -26 0
4 24 26 0
-4 -24 -26 0
3 11 27 0
-3 -11 -27 0
4 25 27 0
-4 -25 -27 0
3 12 28 0
-3 -12 -28 0
4 26 28 0
-4 -26 -28 0
