certificates/rado_a14_c58_N28.drat
4 -28 0
-24 -4 0
-3 -28 0
-4 -28 0
d -26 -4 -28 0
-28 0
-4 0
2 0
6 0
26 0
24 0
3 0
-18 0
-19 0
-22 0
-10 0
-8 0
20 0
16 0
21 0
17 0
5 0
12 0
0
